12
-1 74 48 30 70 27 12 58 42 22 5 91 
85 -1 77 56 14 28 33 49 65 85 62 29 
100 63 -1 52 78 98 72 25 99 99 80 56 
59 78 36 -1 2 58 79 2 7 97 63 83 
48 66 -1 24 -1 15 42 76 62 88 -1 71 
38 -1 -1 63 -1 -1 10 47 28 91 52 86 
29 95 55 47 55 65 -1 64 71 39 10 63 
-1 50 23 57 11 6 83 -1 59 -1 30 6 
36 100 75 93 71 1 39 64 -1 36 78 37 
88 97 -1 -1 21 68 45 78 57 -1 68 55 
45 -1 27 1 32 -1 5 -1 -1 35 -1 85 
94 45 8 73 39 83 15 2 4 22 36 -1 
